(declare-fun e () String)
(declare-fun c () String)
(declare-fun g () String)
(declare-fun b () String)
(declare-fun d () String)
(declare-fun f () String)
(declare-fun a () String)
(assert (= (str.++ "eb" f) (str.++ e "d" a a)))
(assert (= c (str.++ b b g "gh" d)))
(assert (= (str.++ e "ab") "a"))

(check-sat)
